35 40
1 10 1
1 3 1
7 9 1
5 9 2
4 9 1
5 8 1
2 6 1
9 8 1
10 9 1
6 3 1
8 9 2
1 9 2
5 10 1
2 10 1
8 1 1
10 8 1
3 1 1
10 2 1
1 7 1
9 4 1
8 5 1
7 6 2
10 6 2
1 8 1
9 6 1
7 10 1
10 1 1
10 4 1
4 6 1
10 7 1
8 8 1
4 10 1
2 3 1
2 1 1
1 2 1
30 30 
30 30 
30 30 
30 30 
30 30 
30 30 
30 30 
30 30 
30 30 
30 30 
30 30 
30 30 
30 30 
30 30 
30 30 
30 30 
30 30 
30 30 
30 30 
30 30 
30 30 
30 30 
30 30 
30 30 
30 30 
30 30 
30 30 
30 30 
30 30 
30 30 
30 30 
30 30 
30 30 
30 30 
30 30 
30 30 
30 30 
30 30 
30 30 
30 30 
